n = 14;
w = 19;
h = 19;

%ws = [4, 3, 3, 3, 3, 3, 3, 3,  3,  3,  3,  3, 4, 4];
%hs = [7, 3, 4, 5, 6, 7, 8, 9, 10, 11, 13, 19, 5, 6];

ws = [ 3,  3,  3,  3, 3, 3, 4, 3, 4, 3, 4, 3, 3, 3];
hs = [19, 13, 11, 10, 9, 8, 7, 7, 6, 6, 5, 5, 4, 3];